111 192 161 30 133 10 26 69 170 174 104 159 44 109 85 106 25 49 97 71 82 162 127 37 105 89 4 99 96 195 43 175 5 184 153 164 157 140 23 18 38 168 2 100 198 28 186 55 112 173 128 138 137 51 167 93 193 84 143 54 46 7 29 1 20 101 117 131 199 52 135 6 16 36 147 62 70 115 179 194 155 24 50 61 120 80 94 74 45 176 90 98 31 158 21 134 156 141 81 124 32 22 129 58 35 119 110 92 146 8 190 76 126 197 14 3 42 75 63 67 152 121 180 188 39 73 116 59 113 132 144 177 0 60 17 77 123 185 172 165 142 154 12 9 13 57 166 148 91 136 27 145 95 68 196 114 103 107 118 191 65 86 15 139 150 149 169 66 56 53 40 33 88 41 64 189 182 47 171 130 79 178 11 83 87 163 34 48 78 19 72 151 125 187 181 183 102 122 108 160 

